%chk=monoa_15dC2_Enol_pair_1.gjf
%mem=2GB
%NProcShared=6

#P TEST b3lyp/6-311G** nosymm

comments

0 1
X
X   1   r2
X   1   r3   2   a3
X   1   r4   2   a4   3   d41
C  0  3.9771   3.8512   6.2917   1
C  0  4.0255   4.4335   7.6032   1
C  0  2.9110   5.1215   8.0810   1
C  0  1.7698   5.2644   7.2656   1
C  0  1.7256   4.7198   6.0190   1
C  0  2.8186   3.9895   5.4853   1
C  0  2.7702   3.4074   4.1738   1
C  0  3.8848   2.7195   3.6959   1
C  0  5.0258   2.5764   4.5114   1
C  0  5.0700   3.1209   5.7580   1
C  0  5.2216   4.3769   8.4383   1
N  0  5.2564   4.9609   9.5726   1
C  0  6.4503   4.8956   10.3954   1
C  0  6.8556   6.2813   10.8646   1
C  0  1.5740   3.4642   3.3389   1
N  0  1.5389   2.8805   2.2044   1
C  0  0.3447   2.9462   1.3821   1
C  0  -0.0608   1.5608   0.9121   1
O  0  2.8729   5.6913   9.2815   1
O  0  3.9231   2.1502   2.4952   1
H  0  3.7812   5.5397   9.6929   1
H  0  3.0149   2.3021   2.0835   1
H  0  5.8501   1.9932   4.1267   1
H  0  5.9618   2.9655   6.3452   1
H  0  6.0962   3.8358   8.0794   1
H  0  7.2713   4.4007   9.8744   1
H  0  6.1961   4.2791   11.2607   1
H  0  7.7002   6.2088   11.5459   1
H  0  6.0334   6.7682   11.3885   1
H  0  7.1591   6.9120   10.0319   1
H  0  0.9457   5.8477   7.6501   1
H  0  0.8338   4.8752   5.4319   1
H  0  0.6994   4.0050   3.6982   1
H  0  -0.4762   3.4408   1.9037   1
H  0  0.5985   3.5634   0.5171   1
H  0  0.7613   1.0744   0.3876   1
H  0  -0.3639   0.9295   1.7445   1
H  0  -0.9057   1.6338   0.2313   1

Constants:
r2   12.4800
r3   6.7950
r4   7.8750
a3   90.0000
a4   95.1250
d4   -90.0000


