%chk=monob_15dC2_Enol_pair_1.gjf
%mem=2GB
%NProcShared=6

#P TEST b3lyp/6-311G** nosymm

comments

0 1
X
X   1   r2
X   1   r3   2   a3
X   1   r4   2   a4   3   d41
C  -1  6.2160   7.7740   5.9410   1
C  -1  6.1680   8.3580   7.2510   1
C  -1  7.2820   9.0500   7.7260   1
C  -1  8.4220   9.1920   6.9100   1
C  -1  8.4670   8.6440   5.6650   1
C  -1  7.3740   7.9110   5.1330   1
C  -1  7.4220   7.3270   3.8230   1
C  -1  6.3080   6.6350   3.3480   1
C  -1  5.1680   6.4930   4.1640   1
C  -1  5.1240   7.0410   5.4090   1
C  -1  4.9730   8.3000   8.0880   1
N  -1  4.9380   8.8860   9.2210   1
C  -1  3.7450   8.8210   10.0450   1
C  -1  3.3380   10.2080   10.5080   1
C  -1  8.6170   7.3850   2.9860   1
N  -1  8.6520   6.7990   1.8520   1
C  -1  9.8450   6.8650   1.0290   1
C  -1  10.2520   5.4780   0.5650   1
O  -1  7.3210   9.6230   8.9250   1
O  -1  6.2700   6.0620   2.1490   1
H  -1  6.4130   9.4700   9.3390   1
H  -1  7.1770   6.2150   1.7360   1
H  -1  4.3450   5.9070   3.7820   1
H  -1  4.2320   6.8860   5.9970   1
H  -1  4.1000   7.7560   7.7310   1
H  -1  2.9250   8.3220   9.5260   1
H  -1  4.0010   8.2090   10.9130   1
H  -1  2.4900   10.1390   11.1860   1
H  -1  4.1580   10.6960   11.0330   1
H  -1  3.0380   10.8360   9.6720   1
H  -1  9.2460   9.7770   7.2930   1
H  -1  9.3580   8.7980   5.0770   1
H  -1  9.4900   7.9290   3.3430   1
H  -1  10.6650   7.3640   1.5480   1
H  -1  9.5890   7.4780   0.1610   1
H  -1  9.4320   4.9910   0.0390   1
H  -1  10.5520   4.8490   1.4010   1
H  -1  11.1000   5.5480   -0.1130   1

Constants:
r2   12.4800
r3   6.7950
r4   7.8750
a3   90.0000
a4   95.1250
d4   -90.0000


