%chk=monob_15dC2_Enol_pair_1.gjf
%mem=2GB
%NProcShared=6

#P TEST b3lyp/6-311G** nosymm

comments

0 1
X
X   1   r2
X   1   r3   2   a3
X   1   r4   2   a4   3   d41
O  -1  -2.7410   8.0660   5.9090   1
C  -1  -3.7430   7.3070   6.3640   1
C  -1  -3.9440   6.0100   5.9040   1
C  -1  -3.0950   5.5000   4.8400   1
N  -1  -2.0860   6.1740   4.4240   1
H  -1  -2.2540   7.5050   5.2100   1
O  -1  -8.1070   2.9310   8.0130   1
C  -1  -7.1050   3.6900   7.5590   1
C  -1  -6.9040   4.9870   8.0180   1
C  -1  -7.7520   5.4970   9.0830   1
N  -1  -8.7620   4.8230   9.4980   1
H  -1  -8.5940   3.4920   8.7120   1
C  -1  -5.0000   5.2210   6.4670   1
C  -1  -5.2310   3.8810   6.0570   1
C  -1  -6.2530   3.1450   6.5760   1
C  -1  -5.8480   5.7750   7.4550   1
C  -1  -5.6170   7.1160   7.8660   1
C  -1  -4.5950   7.8520   7.3460   1
C  -1  -1.3220   5.6590   3.3081   1
C  -1  -9.5260   5.3370   10.6150   1
H  -1  -4.3870   8.8470   7.7160   1
H  -1  -6.2410   7.5640   8.6260   1
H  -1  -6.4610   2.1500   6.2070   1
H  -1  -4.6070   3.4330   5.2960   1
H  -1  -3.3230   4.5400   4.3850   1
H  -1  -0.2851   5.5200   3.6099   1
H  -1  -1.3320   6.4000   2.5110   1
H  -1  -1.7150   4.7110   2.9430   1
H  -1  -7.5250   6.4560   9.5380   1
H  -1  -9.1330   6.2860   10.9810   1
H  -1  -9.5160   4.5960   11.4110   1
H  -1  -10.5620   5.4770   10.3130   1

Constants:
r2   4.7280
r3   10.8480
r4   11.0000
a3   90.0000
a4   91.3610
d4   -90.0000


